JOBS = 1..3;
MACHINES = 1..9;
SPEED = 1;
time = array3d(JOBS,MACHINES,1..SPEED,[53,43,43,97,54,68,72,47,79,96,82,12,47,24,27,52,73,66,26,95,17,31,98,46,56,88,25]);
energy = array3d(JOBS,MACHINES,1..SPEED,[58,65,65,37,58,50,48,62,45,38,44,88,62,78,76,59,48,51,77,38,84,73,37,63,57,41,77]);
precedence = array2d(JOBS,MACHINES,[8,4,6,3,1,7,5,0,2,3,8,1,0,7,4,6,5,2,7,5,4,1,0,8,3,6,2]);
ME = 1;
TE = 178;
st_old = array2d(JOBS,MACHINES,[556,330,445,233,100,488,373,0,154,125,397,47,0,373,221,321,248,59,410,227,210,98,0,436,154,322,129]);
SpeedScaling = array2d(JOBS,MACHINES,[1,1,1,1,1,1,1,1,1,1,1,1,1,1,1,1,1,1,1,1,1,1,1,1,1,1,1]);
